NAME:  inst6_12
TYPE: ATSP
COMMENT: Asymmetric TSP (Fischetti)
DIMENSION:  12
EDGE_WEIGHT_TYPE: EXPLICIT
EDGE_WEIGHT_FORMAT: FULL_MATRIX 
EDGE_WEIGHT_SECTION
    0  409  503  297  548  466  899  453  571  425  314  194
    327  0  638  608  309  504  108  898  147  182  399  836
    279  439  0  101  178  168  822  149  275  682  870  386
    529  373  369  0  696  292  948  147  479  426  480  911
    727  183  534  102  0  324  653  256  918  318  315  764
    903  193  487  273  235  0  857  326  688  184  580  852
    410  788  661  509  979  817  0  464  835  863  390  714
    571  258  208  902  562  815  935  0  174  167  235  670
    886  790  705  981  216  484  289  998  0  765  326  889
    700  751  360  798  941  535  548  398  936  0  133  776
    491  198  410  944  585  276  499  661  610  657  0  627
    209  641  919  656  308  825  258  826  593  914  315  0
EOF
